(set-logic ALL)
(declare-fun lift_f$ (Int) Int)
(assert (forall ((lift_n$ Int)) (=> (>= lift_n$ 0) (=> (> lift_n$ 3) (> (lift_f$ lift_n$) lift_n$)))))
(assert true)
(assert (forall ((x0 Int)) (=> (>= x0 0) (>= (lift_f$ x0) 0))))
(check-sat)
